% Generated FlatZinc statistics:
%%%mzn-stat: paths=0
%%%mzn-stat: flatIntVars=205
%%%mzn-stat: flatIntConstraints=242
%%%mzn-stat: method="maximize"
%%%mzn-stat: flatTime=3.23224
%%%mzn-stat-end

=====UNKNOWN=====
%%%mzn-stat: nSolutions=0
%%%mzn-stat-end
